min: c;

c = 3.23755378088927 * u4_t1_h1 + 3.9340489384277 * u4_t1_h2 + 3.04949066782038 * u4_t1_h3 + 3.59474633127573 * u4_t1_h4 + 3.59474633127573 * u4_t10_h4 + 3.22868516277264 * u4_t1_h5 + 3.22868516277264 * u4_t10_h5 + 3.55735801937265 * u4_t1_h6 + 3.55735801937265 * u4_t10_h6 + 4.51247764404031 * u4_t1_h7 + 4.51247764404031 * u4_t10_h7 + 5.07528794555158 * u4_t1_h8 + 5.07528794555158 * u4_t9_h8 + 5.07528794555158 * u4_t10_h8 + 5.08664599616555 * u4_t9_h9 + 5.08664599616555 * u4_t10_h9 + 4.98406635040752 * u4_t9_h10 + 4.98406635040752 * u4_t10_h10 + 3.97992170937529 * u4_t2_h11 + 3.97992170937529 * u4_t4_h11 + 3.97992170937529 * u4_t9_h11 + 3.97992170937529 * u4_t10_h11 + 6.66284936232622 * u4_t2_h12 + 6.66284936232622 * u4_t3_h12 + 6.66284936232622 * u4_t4_h12 + 6.66284936232622 * u4_t8_h12 + 6.66284936232622 * u4_t9_h12 + 6.66284936232622 * u4_t10_h12 + 4.3077220006697 * u4_t2_h13 + 4.3077220006697 * u4_t3_h13 + 4.3077220006697 * u4_t4_h13 + 4.3077220006697 * u4_t8_h13 + 4.3077220006697 * u4_t9_h13 + 5.71061201231653 * u4_t2_h14 + 5.71061201231653 * u4_t3_h14 + 5.71061201231653 * u4_t4_h14 + 5.71061201231653 * u4_t8_h14 + 5.71061201231653 * u4_t9_h14 + 5.99181895184607 * u4_t2_h15 + 5.99181895184607 * u4_t3_h15 + 5.99181895184607 * u4_t4_h15 + 5.99181895184607 * u4_t8_h15 + 5.99181895184607 * u4_t9_h15 + 6.02134074801763 * u4_t2_h16 + 6.02134074801763 * u4_t3_h16 + 6.02134074801763 * u4_t4_h16 + 6.02134074801763 * u4_t5_h16 + 6.02134074801763 * u4_t8_h16 + 6.02134074801763 * u4_t9_h16 + 6.46494978402456 * u4_t2_h17 + 6.46494978402456 * u4_t3_h17 + 6.46494978402456 * u4_t5_h17 + 6.46494978402456 * u4_t8_h17 + 6.46494978402456 * u4_t9_h17 + 6.24199204023312 * u4_t2_h18 + 6.24199204023312 * u4_t3_h18 + 6.24199204023312 * u4_t5_h18 + 6.24199204023312 * u4_t8_h18 + 6.24199204023312 * u4_t9_h18 + 5.35107114356414 * u4_t2_h19 + 5.35107114356414 * u4_t3_h19 + 5.35107114356414 * u4_t6_h19 + 5.35107114356414 * u4_t8_h19 + 5.35107114356414 * u4_t9_h19 + 5.3804913317916 * u4_t2_h20 + 5.3804913317916 * u4_t6_h20 + 5.3804913317916 * u4_t9_h20 + 5.70183596309591 * u4_t6_h21 + 5.1286987466126 * u4_t6_h22 + 5.1286987466126 * u4_t7_h22 + 5.47637569410557 * u4_t6_h23 + 5.47637569410557 * u4_t7_h23;
0 <= u4_t1_h1 <= 1;
0 <= u4_t1_h2 <= 1;
0 <= u4_t1_h3 <= 1;
0 <= u4_t1_h4 <= 1;
0 <= u4_t1_h5 <= 1;
0 <= u4_t1_h6 <= 1;
0 <= u4_t1_h7 <= 1;
0 <= u4_t1_h8 <= 1;
u4_t1_h1 + u4_t1_h2 + u4_t1_h3 + u4_t1_h4 + u4_t1_h5 + u4_t1_h6 + u4_t1_h7 + u4_t1_h8 = 1;
0 <= u4_t2_h11 <= 1;
0 <= u4_t2_h12 <= 1;
0 <= u4_t2_h13 <= 1;
0 <= u4_t2_h14 <= 1;
0 <= u4_t2_h15 <= 1;
0 <= u4_t2_h16 <= 1;
0 <= u4_t2_h17 <= 1;
0 <= u4_t2_h18 <= 1;
0 <= u4_t2_h19 <= 1;
0 <= u4_t2_h20 <= 1;
u4_t2_h11 + u4_t2_h12 + u4_t2_h13 + u4_t2_h14 + u4_t2_h15 + u4_t2_h16 + u4_t2_h17 + u4_t2_h18 + u4_t2_h19 + u4_t2_h20 = 2;
0 <= u4_t3_h12 <= 1;
0 <= u4_t3_h13 <= 1;
0 <= u4_t3_h14 <= 1;
0 <= u4_t3_h15 <= 1;
0 <= u4_t3_h16 <= 1;
0 <= u4_t3_h17 <= 1;
0 <= u4_t3_h18 <= 1;
0 <= u4_t3_h19 <= 1;
u4_t3_h12 + u4_t3_h13 + u4_t3_h14 + u4_t3_h15 + u4_t3_h16 + u4_t3_h17 + u4_t3_h18 + u4_t3_h19 = 3;
0 <= u4_t4_h11 <= 1;
0 <= u4_t4_h12 <= 1;
0 <= u4_t4_h13 <= 1;
0 <= u4_t4_h14 <= 1;
0 <= u4_t4_h15 <= 1;
0 <= u4_t4_h16 <= 1;
u4_t4_h11 + u4_t4_h12 + u4_t4_h13 + u4_t4_h14 + u4_t4_h15 + u4_t4_h16 = 3;
0 <= u4_t5_h16 <= 1;
0 <= u4_t5_h17 <= 1;
0 <= u4_t5_h18 <= 1;
u4_t5_h16 + u4_t5_h17 + u4_t5_h18 = 1;
0 <= u4_t6_h19 <= 1;
0 <= u4_t6_h20 <= 1;
0 <= u4_t6_h21 <= 1;
0 <= u4_t6_h22 <= 1;
0 <= u4_t6_h23 <= 1;
u4_t6_h19 + u4_t6_h20 + u4_t6_h21 + u4_t6_h22 + u4_t6_h23 = 3;
0 <= u4_t7_h22 <= 1;
0 <= u4_t7_h23 <= 1;
u4_t7_h22 + u4_t7_h23 = 1;
0 <= u4_t8_h12 <= 1;
0 <= u4_t8_h13 <= 1;
0 <= u4_t8_h14 <= 1;
0 <= u4_t8_h15 <= 1;
0 <= u4_t8_h16 <= 1;
0 <= u4_t8_h17 <= 1;
0 <= u4_t8_h18 <= 1;
0 <= u4_t8_h19 <= 1;
u4_t8_h12 + u4_t8_h13 + u4_t8_h14 + u4_t8_h15 + u4_t8_h16 + u4_t8_h17 + u4_t8_h18 + u4_t8_h19 = 2;
0 <= u4_t9_h8 <= 1;
0 <= u4_t9_h9 <= 1;
0 <= u4_t9_h10 <= 1;
0 <= u4_t9_h11 <= 1;
0 <= u4_t9_h12 <= 1;
0 <= u4_t9_h13 <= 1;
0 <= u4_t9_h14 <= 1;
0 <= u4_t9_h15 <= 1;
0 <= u4_t9_h16 <= 1;
0 <= u4_t9_h17 <= 1;
0 <= u4_t9_h18 <= 1;
0 <= u4_t9_h19 <= 1;
0 <= u4_t9_h20 <= 1;
u4_t9_h8 + u4_t9_h9 + u4_t9_h10 + u4_t9_h11 + u4_t9_h12 + u4_t9_h13 + u4_t9_h14 + u4_t9_h15 + u4_t9_h16 + u4_t9_h17 + u4_t9_h18 + u4_t9_h19 + u4_t9_h20 = 2;
0 <= u4_t10_h4 <= 1;
0 <= u4_t10_h5 <= 1;
0 <= u4_t10_h6 <= 1;
0 <= u4_t10_h7 <= 1;
0 <= u4_t10_h8 <= 1;
0 <= u4_t10_h9 <= 1;
0 <= u4_t10_h10 <= 1;
0 <= u4_t10_h11 <= 1;
0 <= u4_t10_h12 <= 1;
u4_t10_h4 + u4_t10_h5 + u4_t10_h6 + u4_t10_h7 + u4_t10_h8 + u4_t10_h9 + u4_t10_h10 + u4_t10_h11 + u4_t10_h12 = 2;
